&control
do_bc   = .true.
do_ic   = .true.

domain  = 1

dir_wrf = 'Noah_WIR/'
dir_moz = 'CAMchem/'

fn_moz  = 'hb0000.nc'
def_missing_var = .true.

spc_map = 'o3 -> O3',  'n2o -> N2O', 'no -> NO',
          'no2 -> NO2', 'no3 -> NO3', 'nh3 -> NH3', 'hno3 -> HNO3', 'hno4 -> HO2NO2',
          'n2o5 -> N2O5', 'ho -> OH', 'ho2 -> HO2', 'h2o2 -> H2O2',
          'ch4 -> CH4', 'co -> CO', 'ch3ooh -> CH3OOH',
          'hcho -> CH2O', 'ch3oh -> CH3OH', 'c2h4 -> C2H4',
          'ald -> CH3CHO', 'ch3cooh -> CH3COOH', 'acet -> CH3COCH3', 'mgly -> CH3COCHO',
          'pan -> PAN', 'mpan -> MPAN', 'macr -> MACR', 
          'mvk -> MVK', 'c2h6 -> C2H6', 'c3h6 -> C3H6', 'c3h8 -> C3H8',
          'c2h5oh -> C2H5OH',
          'onitr -> ONITR', 'isopr -> ISOP',
          'acetol -> HYAC',
          'mek -> MEK', 
          'bigene -> BIGENE', 'open -> BIGALD', 'bigalk -> BIGALK',
          'tol -> TOLUENE', 
          'cres -> CRESOL', 'dms -> DMS', 'so2 -> SO2'
/
